N = 9;
H = 5;
T = 2;

avail = array3d(1..N, 1..H, 1..T, [3, 2, 6, 8, 0, 2, 8, 2, 2, 1, 5, 7, 10, 1, 9, 7, 1, 2, 6, 9, 1, 5, 3, 10, 8, 7, 3, 2, 7, 5, 5, 9, 3, 7, 2, 5, 2, 5, 8, 6, 9, 2, 3, 8, 2, 6, 10, 9, 6, 7, 7, 5, 1, 0, 8, 3, 10, 10, 2, 2, 5, 6, 9, 3, 2, 7, 8, 5, 5, 0, 2, 7, 1, 5, 4, 6, 6, 1, 2, 0, 9, 6, 9, 1, 10, 3, 5, 2, 4, 1]);

r = array2d(1..H, 1..T, [2, 4, 5, 3, 0, 1, 3, 1, 0, 1]);
